122
0 110 121 92 1 33 77 35 100 41 
107 36 99 63 42 90 50 61 15 19 
30 89 7 14 115 29 6 86 72 104 
106 46 31 103 117 13 16 59 74 44 
26 57 96 62 9 25 52 11 39 82 
17 32 22 24 87 51 28 80 70 118 
116 60 93 75 84 102 47 109 120 113 
65 10 71 69 38 105 64 67 20 18 
78 91 85 98 23 49 94 34 45 73 
76 48 12 40 54 101 97 37 114 27 
119 68 55 3 8 111 81 79 56 88 
58 66 112 53 5 43 95 83 21 2 
108 4 
